Version identifier: 22.1.1.0 | 2022-11-28 | 9160aff4d
CPXPARAM_ClockType                               1
CPXPARAM_Read_DataCheck                          1
CPXPARAM_Threads                                 1
CPXPARAM_Simplex_Tolerances_Optimality           1.0000000000000001e-09
CPXPARAM_TimeLimit                               7200
CPXPARAM_MIP_Tolerances_AbsMIPGap                0
CPXPARAM_MIP_Tolerances_MIPGap                   0
CPXPARAM_MIP_Tolerances_Integrality              0
Tried aggregator 6 times.
MIQP Presolve eliminated 27763 rows and 1120 columns.
MIQP Presolve modified 2631 coefficients.
Aggregator did 3509 substitutions.
Reduced MIQP has 129317 rows, 21291 columns, and 420409 nonzeros.
Reduced MIQP has 20096 binaries, 1195 generals, 0 SOSs, and 0 indicators.
Reduced MIQP objective Q matrix has 1195 nonzeros.
Presolve time = 1.26 sec. (715.78 ticks)
Probing time = 0.03 sec. (10.87 ticks)
Tried aggregator 1 time.
MIQP Presolve eliminated 150 rows and 0 columns.
Reduced MIQP has 129167 rows, 21291 columns, and 419829 nonzeros.
Reduced MIQP has 20096 binaries, 1195 generals, 0 SOSs, and 0 indicators.
Reduced MIQP objective Q matrix has 1195 nonzeros.
Presolve time = 0.40 sec. (216.60 ticks)
Classifier predicts products in MIQP should be linearized.
Probing time = 0.02 sec. (10.73 ticks)
Clique table members: 7898.
MIP emphasis: balance optimality and feasibility.
MIP search method: dynamic search.
Parallel mode: none, using 1 thread.
Root relaxation solution time = 3411.44 sec. (9313329.44 ticks)

        Nodes                                         Cuts/
   Node  Left     Objective  IInf  Best Integer    Best Bound    ItCnt     Gap

      0     0    29527.0142  9967                  29527.0142       10         

Implied bound cuts applied:  387
Zero-half cuts applied:  2556

Root node processing (before b&c):
  Real time             = 7205.09 sec. (11092872.01 ticks)
Sequential b&c:
  Real time             =    0.00 sec. (0.00 ticks)
                          ------------
Total (root+branch&cut) = 7205.09 sec. (11092872.01 ticks)
Solution is infeasible.

---------------------
@@@ MIP_time_limit_infeasible
Traceback (most recent call last):
  File "/scratch/scherif/DiverseSAT-journal_sup/DiverseSAT_Supplementary_Experiments/experiment-1/cplex/jobs/../solvers/CPLEX-QP-SE.py", line 118, in <module>
    print(f">>> Benchmark {os.path.basename(cnf_file)} k {k} OPT {int(prob.solution.get_objective_value())}"
  File "/users/scherif/.local/lib/python3.9/site-packages/cplex/_internal/_subinterfaces.py", line 7211, in get_objective_value
    return CPX_PROC.getobjval(self._env._e, self._cplex._lp)
  File "/users/scherif/.local/lib/python3.9/site-packages/cplex/_internal/_procedural.py", line 2055, in getobjval
    check_status(env, status)
  File "/users/scherif/.local/lib/python3.9/site-packages/cplex/_internal/_procedural.py", line 249, in __call__
    raise CplexSolverError(error_string, env, status)
cplex.exceptions.errors.CplexSolverError: CPLEX Error  1217: No solution exists.
